presolving:
(round 1, fast)       101 del vars, 0 del conss, 0 add conss, 0 chg bounds, 0 chg sides, 0 chg coeffs, 0 upgd conss, 0 impls, 200 clqs
(round 2, exhaustive) 101 del vars, 0 del conss, 0 add conss, 0 chg bounds, 0 chg sides, 0 chg coeffs, 200 upgd conss, 0 impls, 200 clqs
   (1.0s) probing: 51/9900 (0.5%) - 0 fixings, 0 aggregations, 0 implications, 0 bound changes
   (1.0s) probing aborted: 50/50 successive totally useless probings
   Deactivated symmetry handling methods, since SCIP was built without symmetry detector (SYM=none).
presolving (3 rounds: 3 fast, 2 medium, 2 exhaustive):
 101 deleted vars, 0 deleted constraints, 0 added constraints, 0 tightened bounds, 0 added holes, 0 changed sides, 0 changed coefficients
 0 implications, 200 cliques
presolved problem has 9999 variables (9900 bin, 0 int, 0 impl, 99 cont) and 9902 constraints
    200 constraints of type <setppc>
   9702 constraints of type <linear>
Presolving Time: 1.00

 time | node  | left  |LP iter|LP it/n|mem/heur|mdpt |vars |cons |rows |cuts |sepa|confs|strbr|  dualbound   | primalbound  |  gap   | compl. 
p 1.0s|     1 |     0 |    59 |     - | vbounds|   0 |9999 |9909 |9902 |   0 |  0 |   6 |   0 | 0.000000e+00 | 1.536248e+05 |    Inf | unknown
  1.0s|     1 |     0 |   357 |     - |   126M |   0 |9999 |9909 |9902 |   0 |  0 |   6 |   0 | 1.685239e+04 | 1.536248e+05 | 811.59%| unknown
  1.0s|     1 |     0 |   434 |     - |   129M |   0 |9999 |9909 |9979 |  77 |  1 |   6 |   0 | 1.736436e+04 | 1.536248e+05 | 784.71%| unknown
  2.0s|     1 |     0 |   483 |     - |   132M |   0 |9999 |9910 |  10k| 127 |  2 |   7 |   0 | 1.746756e+04 | 1.536248e+05 | 779.49%| unknown
  2.0s|     1 |     0 |   539 |     - |   133M |   0 |9999 |9910 |  10k| 159 |  3 |   7 |   0 | 1.997956e+04 | 1.536248e+05 | 668.91%| unknown
  2.0s|     1 |     0 |   561 |     - |   136M |   0 |9999 |9910 |  10k| 171 |  4 |   7 |   0 | 2.026602e+04 | 1.536248e+05 | 658.04%| unknown
  2.0s|     1 |     0 |   571 |     - |   137M |   0 |9999 |9910 |  10k| 178 |  5 |   7 |   0 | 2.026602e+04 | 1.536248e+05 | 658.04%| unknown
  2.0s|     1 |     0 |   625 |     - |   138M |   0 |9999 |9910 |  10k| 199 |  6 |   7 |   0 | 2.031773e+04 | 1.536248e+05 | 656.11%| unknown
  3.0s|     1 |     0 |   663 |     - |   140M |   0 |9999 |9910 |  10k| 212 |  7 |   7 |   0 | 2.033691e+04 | 1.536248e+05 | 655.40%| unknown
  3.0s|     1 |     0 |   685 |     - |   141M |   0 |9999 |9910 |  10k| 227 |  8 |   7 |   0 | 2.037886e+04 | 1.536248e+05 | 653.84%| unknown
  3.0s|     1 |     0 |   696 |     - |   142M |   0 |9999 |9910 |  10k| 232 |  9 |   7 |   0 | 2.038645e+04 | 1.536248e+05 | 653.56%| unknown
  3.0s|     1 |     0 |   723 |     - |   143M |   0 |9999 |9910 |  10k| 249 | 10 |   7 |   0 | 2.039962e+04 | 1.536248e+05 | 653.08%| unknown
  3.0s|     1 |     0 |   763 |     - |   144M |   0 |9999 |9910 |  10k| 260 | 11 |   7 |   0 | 2.041219e+04 | 1.536248e+05 | 652.61%| unknown
  4.0s|     1 |     0 |   789 |     - |   146M |   0 |9999 |9910 |  10k| 278 | 12 |   7 |   0 | 2.049285e+04 | 1.536248e+05 | 649.65%| unknown
  4.0s|     1 |     0 |   800 |     - |   147M |   0 |9999 |9910 |  10k| 284 | 13 |   7 |   0 | 2.049285e+04 | 1.536248e+05 | 649.65%| unknown
 time | node  | left  |LP iter|LP it/n|mem/heur|mdpt |vars |cons |rows |cuts |sepa|confs|strbr|  dualbound   | primalbound  |  gap   | compl. 
  4.0s|     1 |     0 |   824 |     - |   149M |   0 |9999 |9910 |  10k| 298 | 14 |   7 |   0 | 2.049894e+04 | 1.536248e+05 | 649.43%| unknown
  4.0s|     1 |     0 |   850 |     - |   150M |   0 |9999 |9910 |  10k| 310 | 15 |   7 |   0 | 2.053748e+04 | 1.536248e+05 | 648.02%| unknown
  5.0s|     1 |     0 |   863 |     - |   151M |   0 |9999 |9910 |  10k| 316 | 16 |   7 |   0 | 2.053748e+04 | 1.536248e+05 | 648.02%| unknown
  5.0s|     1 |     0 |   887 |     - |   153M |   0 |9999 |9910 |  10k| 322 | 17 |   7 |   0 | 2.057561e+04 | 1.536248e+05 | 646.64%| unknown
  5.0s|     1 |     0 |   894 |     - |   153M |   0 |9999 |9910 |  10k| 327 | 18 |   7 |   0 | 2.057561e+04 | 1.536248e+05 | 646.64%| unknown
  5.0s|     1 |     0 |   895 |     - |   153M |   0 |9999 |9910 |  10k| 328 | 19 |   7 |   0 | 2.057561e+04 | 1.536248e+05 | 646.64%| unknown
  5.0s|     1 |     0 |   896 |     - |   154M |   0 |9999 |9910 |  10k| 329 | 20 |   7 |   0 | 2.057561e+04 | 1.536248e+05 | 646.64%| unknown
  5.0s|     1 |     0 |   913 |     - |   154M |   0 |9999 |9910 |  10k| 330 | 21 |   7 |   0 | 2.058192e+04 | 1.536248e+05 | 646.41%| unknown
  6.0s|     1 |     0 |   921 |     - |   154M |   0 |9999 |9910 |  10k| 336 | 22 |   7 |   0 | 2.058236e+04 | 1.536248e+05 | 646.39%| unknown
  6.0s|     1 |     0 |   923 |     - |   154M |   0 |9999 |9910 |  10k| 338 | 23 |   7 |   0 | 2.058236e+04 | 1.536248e+05 | 646.39%| unknown
  6.0s|     1 |     0 |   928 |     - |   154M |   0 |9999 |9910 |  10k| 344 | 24 |   7 |   0 | 2.058236e+04 | 1.536248e+05 | 646.39%| unknown
  6.0s|     1 |     0 |   930 |     - |   154M |   0 |9999 |9910 |  10k| 346 | 25 |   7 |   0 | 2.058236e+04 | 1.536248e+05 | 646.39%| unknown
  6.0s|     1 |     0 |   932 |     - |   154M |   0 |9999 |9910 |  10k| 348 | 26 |   7 |   0 | 2.058236e+04 | 1.536248e+05 | 646.39%| unknown
 21.0s|     1 |     2 |  5600 |     - |   156M |   0 |9999 |9912 |  10k| 348 | 28 |   9 |  25 | 2.062569e+04 | 1.536248e+05 | 644.82%| unknown
L 172s|    41 |    42 |  7956 | 177.1 |    alns|  20 |9999 |9937 |  10k| 531 |  2 |  34 | 754 | 2.064678e+04 | 9.150936e+04 | 343.21%| unknown
 time | node  | left  |LP iter|LP it/n|mem/heur|mdpt |vars |cons |rows |cuts |sepa|confs|strbr|  dualbound   | primalbound  |  gap   | compl. 
  341s|   100 |   101 | 12259 | 115.0 |   196M |  21 |9999 |9973 |  10k| 678 |  1 |  70 |1411 | 2.065132e+04 | 9.150936e+04 | 343.12%| unknown
o 346s|   104 |   105 | 14290 | 130.3 |rootsold|  21 |9999 |9973 |  10k| 681 |  1 |  70 |1425 | 2.065132e+04 | 3.412196e+04 |  65.23%| unknown
d 371s|   119 |   120 | 15253 | 121.9 |linesear|  22 |9999 |9975 |  10k|   0 |  1 |  72 |1513 | 2.065132e+04 | 3.049638e+04 |  47.67%| unknown
  489s|   200 |   201 | 23003 | 111.2 |   218M |  23 |9999 |  10k|  10k|1054 |  1 | 124 |1946 | 2.065132e+04 | 3.049638e+04 |  47.67%| unknown
  547s|   300 |   299 | 28271 |  91.6 |   229M |  29 |9999 |  10k|  10k|1301 |  1 | 172 |2132 | 2.065132e+04 | 3.049638e+04 |  47.67%| unknown
o 553s|   309 |   306 | 30385 |  95.8 |rootsold|  29 |9999 |  10k|  10k|1310 |  2 | 172 |2152 | 2.065132e+04 | 2.865698e+04 |  38.77%| unknown
  599s|   400 |   397 | 35771 |  87.5 |   241M |  29 |9999 |  10k|  10k|1601 |  1 | 191 |2305 | 2.065132e+04 | 2.865698e+04 |  38.77%| unknown

SCIP Status        : solving was interrupted [time limit reached]
Solving Time (sec) : 600.00
Solving Nodes      : 401
Primal Bound       : +2.86569754264645e+04 (5 solutions)
Dual Bound         : +2.06513208067329e+04
Gap                : 38.77 %
Trying to solve problem with MTZ Solver Method...
Starting Solver, time limit setted to 10 minutes
Route:  [[0, 89], [1, 12], [2, 27], [3, 82], [4, 66], [5, 3], [6, 33], [7, 58], [8, 56], [9, 67], [10, 2], [11, 8], [12, 62], [13, 63], [14, 5], [15, 1], [16, 40], [17, 15], [18, 13], [19, 79], [20, 9], [21, 22], [22, 53], [23, 76], [24, 45], [25, 55], [26, 34], [27, 90], [28, 7], [29, 68], [30, 77], [31, 97], [32, 14], [33, 24], [34, 60], [35, 44], [36, 64], [37, 19], [38, 69], [39, 38], [40, 43], [41, 32], [42, 51], [43, 18], [44, 17], [45, 70], [46, 87], [47, 30], [48, 37], [49, 23], [50, 47], [51, 57], [52, 72], [53, 49], [54, 21], [55, 80], [56, 93], [57, 83], [58, 31], [59, 65], [60, 71], [61, 4], [62, 50], [63, 81], [64, 78], [65, 86], [66, 39], [67, 85], [68, 25], [69, 52], [70, 11], [71, 36], [72, 84], [73, 59], [74, 99], [75, 98], [76, 91], [77, 16], [78, 74], [79, 29], [80, 46], [81, 41], [82, 88], [83, 6], [84, 92], [85, 48], [86, 26], [87, 54], [88, 42], [89, 20], [90, 96], [91, 95], [92, 10], [93, 73], [94, 0], [95, 35], [96, 75], [97, 94], [98, 28], [99, 61]]
An Otimal Solution was found, yay!
Objective value: 28657.0
Problem solved in 35824 iterations
Problem solved in 401 nodes
Final Route Configuration succesfully created at:
data/routes/kroB100.csv
